880932
69,73,79,98,67,62,12,31,59,30,61,92,48,5,74,68,40,17,55,9,76,29,95,20,19,8,32,56,46,94,24,77,50,78,28,39,93,25,16,11,18,58,89,70,33,27,45,66,10,22,97,53,64,51,23,42,21,72,83,91,38,13,85,80,6,65,3,44,15,81,57,60,14,82,34,96,96,1,26,63,4,2,84,88,7,52,90,43,54,71,35,49,87,37,75,86,47,36,0
